c uprop, v00.0, 
c reading from data/prog625.c.cnf
c done reading: 0.002646
p cnf 110 337
-65 -70 0
65 70 0
65 -71 0
-65 71 0
70 -74 0
-74 -76 0
-70 74 76 0
-70 76 -81 0
70 -76 -81 0
70 76 81 0
-70 -76 81 0
74 -85 0
-74 85 0
-74 -87 0
74 87 0
85 -93 0
-85 93 0
-85 -96 0
85 96 0
-68 93 0
68 -93 0
-79 -93 0
79 93 0
68 -99 0
-68 99 0
-62 -68 0
62 68 0
-59 99 0
59 -99 0
-56 -99 0
56 99 0
-53 65 0
53 -65 0
50 -65 -76 0
-50 65 76 0
-50 76 0
-50 65 0
-47 -50 76 0
-47 -50 65 0
-47 -50 0
47 50 -76 0
47 50 -65 0
-47 65 76 0
44 -50 -76 0
-44 76 0
-44 50 0
-44 50 76 0
-40 -44 0
-40 -44 76 0
-40 -44 50 0
40 44 -76 0
40 44 -50 0
-40 50 76 0
36 -44 0
-36 44 0
36 -73 0
-36 73 0
-65 84 0
65 -84 0
-76 90 0
76 -90 0
-42 84 0
42 -84 0
38 -65 -90 0
-38 65 90 0
-38 90 0
-38 65 0
-34 -38 90 0
-34 -38 65 0
-34 -38 0
34 38 -90 0
34 38 -65 0
-34 65 90 0
-38 -76 0
33 -76 0
33 -38 0
-33 38 76 0
-53 -82 0
53 82 0
53 -86 0
-53 86 0
82 -88 0
-47 -88 0
47 -82 88 0
47 -82 -94 0
-47 82 -94 0
47 82 94 0
-47 -82 94 0
88 -97 0
-40 -97 0
40 -88 97 0
40 -69 -88 0
-40 -69 88 0
40 69 88 0
-40 69 -88 0
-80 97 0
-73 -80 0
73 80 -97 0
73 -97 -100 0
-73 97 -100 0
73 97 100 0
-73 -97 100 0
-63 80 0
-42 -63 0
42 63 -80 0
42 -60 -80 0
-42 -60 80 0
42 60 80 0
-42 60 -80 0
-57 63 0
-34 -57 0
34 57 -63 0
34 -63 -101 0
-34 63 -101 0
34 63 101 0
-34 -63 101 0
-54 57 0
-33 -54 0
33 54 -57 0
33 -51 -57 0
-33 -51 57 0
33 51 57 0
-33 51 -57 0
-48 54 0
48 -54 0
-45 -54 0
45 54 0
-41 48 0
41 -48 0
-48 -102 0
48 102 0
-37 41 0
37 -41 0
-41 -103 0
41 103 0
37 -104 0
-37 104 0
-37 -105 0
37 105 0
104 -106 0
-104 106 0
-104 -107 0
104 107 0
106 -108 0
-106 108 0
-66 -106 0
66 106 0
-77 -92 0
-77 -109 0
77 92 109 0
92 109 -110 0
-92 -109 -110 0
-92 109 110 0
92 -109 110 0
-32 77 0
-31 -32 0
31 32 -77 0
-29 31 -77 0
-29 -31 77 0
29 31 77 0
29 -31 -77 0
-28 32 0
28 -32 0
-27 -32 0
27 32 0
-26 28 0
26 -28 0
-25 -28 0
25 28 0
26 -64 0
-26 64 0
-26 -75 0
26 75 0
-24 64 0
24 -64 0
-23 -64 0
23 64 0
-22 24 0
22 -24 0
-21 -24 0
21 24 0
-91 92 0
91 -92 0
30 -109 0
-30 109 0
20 -31 0
-20 31 0
-19 30 0
-19 92 0
19 -30 -92 0
-18 -30 -92 0
-18 30 92 0
18 -30 92 0
18 30 -92 0
17 -20 -109 0
17 -19 -20 0
17 -19 -109 0
-17 20 109 0
-17 19 20 0
-17 19 109 0
-16 -17 20 0
-16 -17 109 0
-16 -17 19 0
16 17 -20 0
16 17 -109 0
16 17 -19 0
16 -19 -20 -109 0
-16 19 20 109 0
-17 -31 0
15 -31 0
15 -17 0
-15 17 31 0
-92 -95 0
-95 -109 0
92 95 109 0
-67 92 109 0
-67 -92 -109 0
67 -92 109 0
67 92 -109 0
-78 95 0
-31 -78 0
31 78 -95 0
31 -95 -98 0
-31 95 -98 0
31 95 98 0
-31 -95 98 0
-61 78 0
-61 -91 0
61 -78 91 0
-58 -78 91 0
-58 78 -91 0
58 78 91 0
58 -78 -91 0
-55 61 0
-18 -55 0
18 55 -61 0
-14 18 -61 0
-14 -18 61 0
14 18 61 0
14 -18 -61 0
-52 55 0
-16 -52 0
16 52 -55 0
16 -49 -55 0
-16 -49 55 0
16 49 55 0
-16 49 -55 0
-46 52 0
-15 -46 0
15 46 -52 0
15 -43 -52 0
-15 -43 52 0
15 43 52 0
-15 43 -52 0
-39 46 0
39 -46 0
-13 -46 0
13 46 0
-35 39 0
35 -39 0
-12 -39 0
12 39 0
-11 35 0
11 -35 0
-10 -35 0
10 35 0
-9 11 0
9 -11 0
-8 -11 0
8 11 0
-7 9 0
7 -9 0
-6 -9 0
6 9 0
-5 7 0
5 -7 0
-4 -7 0
4 7 0
53 -72 0
-72 92 0
-53 72 -92 0
-53 -92 0
53 92 0
-47 83 -109 0
-47 -72 83 0
-72 83 -109 0
47 -83 109 0
47 72 -83 0
72 -83 109 0
47 -83 0
-83 109 0
72 -83 0
47 72 109 0
-31 -40 89 0
-40 -83 89 0
-31 -83 89 0
31 40 -89 0
40 83 -89 0
31 83 -89 0
-40 89 0
-31 89 0
-83 89 0
-31 -40 -83 0
3 -73 -91 0
3 -73 -89 0
3 -89 -91 0
-3 73 91 0
-3 73 89 0
-3 89 91 0
-3 73 0
-3 91 0
-3 89 0
73 89 91 0
2 -18 -42 0
2 -3 -42 0
2 -3 -18 0
-2 18 42 0
-2 3 42 0
-2 3 18 0
2 -42 0
2 -18 0
2 -3 0
-3 -18 -42 0
1 -16 -34 0
1 -2 -34 0
1 -2 -16 0
-1 16 34 0
-1 2 34 0
-1 2 16 0
-1 34 0
-1 16 0
-1 2 0
2 16 34 0
-15 -33 0
-1 -33 0
-1 -15 0
1 15 33 0
